CMD:
./solvers/bin/cadical --plain --no-reduce -t 1600 ./data/cnfs//cal118/cal118.53.cnf

c --- [ banner ] -------------------------------------------------------------
c 
c CaDiCaL SAT Solver
c Copyright (c) 2016-2024
c A. Biere, M. Fleury, N. Froleyks, K. Fazekas, F. Pollitt, T. Faller
c JKU Linz, University of Freiburg, TU Wien
c 
c Version 2.1.3 5296d3d2a9bf48c154ab2acb5e44625776d821bf
c g++ (Gentoo 12.3.1_p20230526 p2) 12.3.1 20230526 -Wall -Wextra -O3 -DNDEBUG
c Sat Aug 9 07:26:21 PDT 2025 Linux cedar2.int.cedar.computecanada.ca 5.14.0-362.24.2.el9_3.x86_64 x86_64
c 
c --- [ limit ] --------------------------------------------------------------
c 
c setting time limit to 1600 seconds real time (due to '-t 1600')
c 
c --- [ parsing input ] ------------------------------------------------------
c 
c reading DIMACS file from './data/cnfs//cal118/cal118.53.cnf'
c opening file to read './data/cnfs//cal118/cal118.53.cnf'
c found 'p cnf 1458017 4143706' header
c parsed 4143706 clauses in 0.63 seconds process time
c 
c --- [ options ] ------------------------------------------------------------
c 
c   --compact=false                (different from default 'true')
c   --decompose=false              (different from default 'true')
c   --deduplicate=false            (different from default 'true')
c   --elim=false                   (different from default 'true')
c   --probe=false                  (different from default 'true')
c   --reduce=false                 (different from default 'true')
c   --subsume=false                (different from default 'true')
c   --ternary=false                (different from default 'true')
c   --transred=false               (different from default 'true')
c   --vivify=false                 (different from default 'true')
c 
c --- [ solving ] ------------------------------------------------------------
c 
c time measured in process time since initialization
c 
c  seconds   reductions  redundant   irredundant
c          MB    restarts       trail         variables
c           level   conflicts       glue            remaining
c 
c *  0.64 621  0 0   0    0    0  0% 0 3857919 1394453 96%
c {  0.64 622  0 0   0    0    0  0% 0 3857919 1394453 96%
c i  0.66 622 975 0   1  211  176  6% 3 3857919 1394449 96%
c i  0.69 623 1059 0   7  267  228  6% 3 3857919 1394444 96%
c i  0.70 623 1198 0   7  276  235  6% 3 3857919 1394440 96%
c i  0.71 623 1375 0   7  285  242  6% 3 3857919 1394436 96%
c i  0.72 623 1587 0   7  294  249  7% 3 3857919 1394432 96%
c i  0.73 624 1830 0   7  303  256  7% 3 3857919 1394428 96%
c i  0.74 625 2102 0   7  312  263  7% 3 3857919 1394424 96%
c i  0.75 625 2400 0   7  321  270  7% 3 3857919 1394420 96%
c i  0.76 625 2721 0   7  330  277  8% 3 3857919 1394416 96%
c i  0.77 625 3064 0   7  339  284  8% 3 3857919 1394412 96%
c i  0.78 626 3427 0   7  348  291  9% 3 3857919 1394408 96%
c i  0.79 626 3808 0   7  357  298  9% 3 3857919 1394404 96%
c i  0.80 626 4207 0   7  366  305 10% 3 3857919 1394400 96%
c i  0.81 626 4621 0   7  375  312 10% 3 3857919 1394396 96%
c i  0.82 626 5050 0   7  384  319 11% 3 3857919 1394392 96%
c i  0.83 626 5492 0   7  393  326 11% 3 3857919 1394388 96%
c i  0.84 630 5947 0   7  402  333 12% 3 3857919 1394384 96%
c i  0.85 630 6413 0   7  411  340 12% 3 3857919 1394380 96%
c 
c  seconds     reductions  redundant   irredundant
c          MB      restarts       trail         variables
c            level    conflicts       glue            remaining
c 
c i  0.86 630 6891 0   7  420  347 13% 3 3857919 1394376 96%
c i  0.87 630 7378 0   7  429  354 14% 3 3857919 1394372 96%
c i  0.89 630 7876 0   7  438  361 14% 3 3857919 1394368 96%
c i  0.90 630 8382 0   7  447  368 15% 3 3857919 1394364 96%
c i  0.91 630 8897 0   7  456  375 15% 3 3857919 1394360 96%
c i  0.92 630 9419 0   7  465  382 16% 3 3857919 1394356 96%
c i  0.93 630 9950 0   7  474  389 17% 3 3857919 1394352 96%
c i  0.94 630 10487 0   7  483  396 17% 3 3857919 1394348 96%
c i  0.96 630 11031 0   7  492  403 18% 3 3857919 1394344 96%
c i  0.97 630 11581 0   7  501  410 19% 3 3857919 1394340 96%
c i  0.98 631 12137 0   7  510  417 19% 3 3857919 1394336 96%
c i  0.99 631 12698 0   7  519  424 20% 3 3857919 1394332 96%
c i  1.01 631 13265 0   7  528  431 21% 3 3857919 1394328 96%
c i  1.02 631 13837 0   7  537  438 21% 3 3857919 1394324 96%
c i  1.03 631 14414 0   7  546  445 22% 3 3857919 1394320 96%
c i  1.05 631 14996 0   7  555  452 23% 3 3857919 1394316 96%
c i  1.06 632 15581 0   7  564  459 24% 3 3857919 1394312 96%
c i  1.07 632 16171 0   7  573  466 24% 3 3857919 1394308 96%
c i  1.08 632 16765 0   7  582  473 25% 3 3857919 1394304 96%
c i  1.10 636 17362 0   7  591  480 26% 3 3857919 1394300 96%
c 
c  seconds      reductions  redundant   irredundant
c          MB       restarts       trail         variables
c             level    conflicts       glue            remaining
c 
c i  1.11 638 17963 0   7  600  487 27% 3 3857919 1394296 96%
c i  1.13 638 18568 0   7  609  494 27% 3 3857919 1394292 96%
c i  1.14 638 19175 0   7  618  501 28% 3 3857919 1394288 96%
c i  1.15 638 19786 0   7  627  508 29% 3 3857919 1394284 96%
... skipped 314 lines ...
c i 1302.07 1060 185 0 45320 1333357 1172648 17% 11 3782868 1392109 95%
c i 1302.07 1060 185 0 45320 1333369 1172658 17% 11 3782868 1392106 95%
c 
c   seconds      reductions         redundant     irredundant
c            MB       restarts              trail          variables
c               level       conflicts           glue             remaining
c 
c i 1304.99 1060 187 0 45416 1335392 1174484 17% 11 3782868 1392104 95%
c i 1305.43 1060 187 0 45422 1336046 1175086 17% 11 3782868 1392100 95%
c i 1305.44 1060 187 0 45422 1336116 1175151 17% 11 3782868 1392098 95%
c i 1309.04 1060 187 0 45600 1337280 1176193 17% 12 3782868 1392094 95%
c i 1309.07 1060 188 0 45600 1337619 1176509 17% 11 3782868 1392092 95%
c i 1322.59 1060 188 0 46303 1357403 1194484 18% 11 3782868 1392090 95%
c i 1326.03 1062 189 0 46470 1358886 1195864 18% 11 3782868 1392087 95%
c i 1326.04 1062 189 0 46470 1358958 1195925 18% 11 3782868 1392084 95%
c i 1336.41 1062 203 0 46633 1371995 1207534 19% 11 3782868 1392081 95%
c B 1343.98 1062 200 0 47267 1378120 1212941 19% 11 3782868 1392081 95%
c i 1351.40 1062 193 0 48411 1386369 1219636 19% 11 3782868 1392078 95%
c i 1381.78 1062 180 0 50918 1409483 1239372 18% 12 3782868 1392075 95%
c i 1383.44 1062 183 0 51104 1411397 1241019 18% 12 3782868 1392072 95%
c i 1383.97 1062 183 0 51121 1411756 1241356 18% 12 3782868 1392070 95%
c i 1387.04 1062 183 0 51437 1414770 1243945 18% 12 3782868 1392066 95%
c i 1388.75 1062 179 0 51723 1418355 1246937 18% 12 3782868 1392065 95%
c W 1403.20 1079 183 0 52650 1431121 1258103 18% 12 3782515 1392065 95%
c i 1415.14 1079 174 0 54340 1443009 1268131 17% 12 3782515 1392062 95%
c i 1424.72 1079 191 0 55085 1454525 1278036 18% 12 3782515 1392060 95%
c i 1424.73 1079 191 0 55085 1454565 1278070 18% 12 3782515 1392057 95%
c 
c   seconds      reductions         redundant     irredundant
c            MB       restarts              trail          variables
c               level       conflicts           glue             remaining
c 
c i 1426.65 1079 193 0 55168 1455766 1279181 18% 12 3782515 1392053 95%
c i 1432.57 1079 188 0 56057 1463235 1285201 18% 12 3782515 1392051 95%
c i 1446.17 1079 191 0 57362 1480008 1298906 18% 12 3782515 1392048 95%
c i 1448.10 1079 191 0 57503 1481460 1300114 18% 12 3782515 1392047 95%
c F 1451.62 1079 190 0 57705 1485124 1303408 18% 12 3782515 1392047 95%
c i 1474.49 1079 182 0 59485 1505357 1320949 18% 12 3782515 1392044 95%
c i 1488.54 1079 175 0 60638 1518503 1332193 17% 12 3782515 1392041 95%
c i 1513.21 1079 175 0 62080 1537493 1349001 17% 12 3782515 1392038 95%
c B 1516.30 1079 176 0 62259 1540125 1351366 17% 12 3782515 1392038 95%
c i 1579.39 1085 186 0 65121 1586905 1393311 18% 12 3782515 1392035 95%
c i 1579.96 1085 186 0 65145 1587652 1394016 18% 12 3782515 1392032 95%
c i 1581.38 1085 186 0 65197 1588531 1394812 18% 12 3782515 1392030 95%
c } 1586.78 1086 195 0 65382 1593087 1398742 18% 12 3782515 1392030 95%
c ? 1586.78 1086 195 0 65382 1593087 1398742 18% 12 3782515 1392030 95%
c 
c --- [ result ] -------------------------------------------------------------
c 
c UNKNOWN
c 
c --- [ run-time profiling ] -------------------------------------------------
c 
c process time taken by individual solving procedures
c (percentage relative to process time for solving)
c 
c      1586.14  100.00% search
c      1027.17   64.76% unstable
c       543.89   34.29% stable
c        15.07    0.95% walk
c         0.63    0.04% parse
c         0.01    0.00% lucky
c         0.00    0.00% simplify
c   =================================
c      1586.14   99.96% solve
c 
c last line shows process time for solving
c (percentage relative to total process time)
c 
c --- [ statistics ] ---------------------------------------------------------
c 
c chronological:            713588        44.79 %  of conflicts
c conflicts:               1593087      1004.38    per second
c decisions:              13796889      8698.38    per second
c fixed:                     65986         4.53 %  of all variables
c learned:                 1531994        96.17 %  per conflict
c learned_lits:          165479469       100.00 %  learned literals
c minimized:                     0         0.00 %  learned literals
c shrunken:               58473299        35.34 %  learned literals
c minishrunken:           25385221        15.34 %  learned literals
c otfs:                       8022         0.50 %  of conflict
c propagations:        15827318807         9.98 M  per second
c rephased:                     55     28965.22    interval
c restarts:                  65382        24.37    interval
c stabilizing:                   5        42.76 %  of conflicts
c subsumed:                 133383         2.47 %  of all clauses
c strengthened:               7157         0.13 %  of all clauses
c walked:                       17     93711.00    interval
c 
c seconds are measured in process time for solving
c 
c --- [ resources ] ----------------------------------------------------------
c 
c total process time since initialization:      1586.78    seconds
c total real time since initialization:         1600.00    seconds
c maximum resident set size of process:         1530.79    MB
c 
c --- [ shutting down ] ------------------------------------------------------
c 
c exit 0
